experimental-results/reproduced-data/fig4/urquhart-simon-04-03.cnf
c Random Instance of Urquhart's Problem for SAT (size=4 randomSeed=3).
c Like Hole, this problem as been proved to be exponential for resolution.
c N.B. : instance is unsatisfiable by construction.
c 
c Come from the paper 'Hard Examples for Resolution'.
c        Source : Laurent Simon, simon@lri.fr. May 1999.
c 
c n=4, so there is m^2=16 vertices in each part of the bipartite graph. 
c Bases creations : 
c   - a '1' charge is 'there must be an even number of negated vars'
c   - edges contains variables from which all subbases are constructed.
c vertex A0 :(charge=1), (edges=[30,56,66,69,20,16])
c vertex A1 :(charge=1), (edges=[3,43,33,16,65])
c vertex A2 :(charge=0), (edges=[71,35,65,6])
c vertex A3 :(charge=0), (edges=[52,6,2])
c vertex A4 :(charge=1), (edges=[26,15,2,49])
c vertex A5 :(charge=0), (edges=[34,37,49,5])
c vertex A6 :(charge=0), (edges=[17,55,57,5,44])
c vertex A7 :(charge=0), (edges=[12,39,40,50,44,25])
c vertex A8 :(charge=1), (edges=[67,60,18,63,25,42])
c vertex A9 :(charge=0), (edges=[58,23,32,42,45])
c vertex A10 :(charge=0), (edges=[13,70,45,29])
c vertex A11 :(charge=0), (edges=[1,10,29,62])
c vertex A12 :(charge=1), (edges=[61,46,4,62,73])
c vertex A13 :(charge=1), (edges=[36,48,73,9])
c vertex A14 :(charge=0), (edges=[24,27,9,19])
c vertex A15 :(charge=1), (edges=[38,28,68,19])
c vertex B0 :(charge=0), (edges=[13,66,35,46,59])
c vertex B1 :(charge=1), (edges=[24,20,59,11])
c vertex B2 :(charge=1), (edges=[17,50,18,27,28,11,47])
c vertex B3 :(charge=1), (edges=[61,57,63,32,47,41])
c vertex B4 :(charge=1), (edges=[52,41,14])
c vertex B5 :(charge=0), (edges=[12,56,70,14,53])
c vertex B6 :(charge=0), (edges=[67,69,40,53,21])
c vertex B7 :(charge=0), (edges=[30,21,72])
c vertex B8 :(charge=1), (edges=[38,72,8])
c vertex B9 :(charge=1), (edges=[3,8,51])
c vertex B10 :(charge=1), (edges=[58,10,4,68,51,7])
c vertex B11 :(charge=1), (edges=[34,23,7,54])
c vertex B12 :(charge=0), (edges=[36,43,54,64])
c vertex B13 :(charge=0), (edges=[26,33,55,48,64,31])
c vertex B14 :(charge=0), (edges=[1,31,22])
c vertex B15 :(charge=0), (edges=[71,15,37,39,60,22])
c 
p cnf 73 512
30 56 66 69 20 16 0
30 56 66 69 -20 -16 0
30 56 66 -69 20 -16 0
30 56 66 -69 -20 16 0
30 56 -66 69 20 -16 0
30 56 -66 69 -20 16 0
30 56 -66 -69 20 16 0
30 56 -66 -69 -20 -16 0
30 -56 66 69 20 -16 0
30 -56 66 69 -20 16 0
30 -56 66 -69 20 16 0
30 -56 66 -69 -20 -16 0
30 -56 -66 69 20 16 0
30 -56 -66 69 -20 -16 0
30 -56 -66 -69 20 -16 0
30 -56 -66 -69 -20 16 0
-30 56 66 69 20 -16 0
-30 56 66 69 -20 16 0
-30 56 66 -69 20 16 0
-30 56 66 -69 -20 -16 0
-30 56 -66 69 20 16 0
-30 56 -66 69 -20 -16 0
-30 56 -66 -69 20 -16 0
-30 56 -66 -69 -20 16 0
-30 -56 66 69 20 16 0
-30 -56 66 69 -20 -16 0
-30 -56 66 -69 20 -16 0
-30 -56 66 -69 -20 16 0
-30 -56 -66 69 20 -16 0
-30 -56 -66 69 -20 16 0
-30 -56 -66 -69 20 16 0
-30 -56 -66 -69 -20 -16 0
3 43 33 16 65 0
3 43 33 -16 -65 0
3 43 -33 16 -65 0
3 43 -33 -16 65 0
3 -43 33 16 -65 0
3 -43 33 -16 65 0
3 -43 -33 16 65 0
3 -43 -33 -16 -65 0
-3 43 33 16 -65 0
-3 43 33 -16 65 0
-3 43 -33 16 65 0
-3 43 -33 -16 -65 0
-3 -43 33 16 65 0
-3 -43 33 -16 -65 0
-3 -43 -33 16 -65 0
-3 -43 -33 -16 65 0
71 35 65 -6 0
71 35 -65 6 0
71 -35 65 6 0
71 -35 -65 -6 0
-71 35 65 6 0
-71 35 -65 -6 0
-71 -35 65 -6 0
-71 -35 -65 6 0
52 6 -2 0
52 -6 2 0
-52 6 2 0
-52 -6 -2 0
26 15 2 49 0
26 15 -2 -49 0
26 -15 2 -49 0
26 -15 -2 49 0
-26 15 2 -49 0
-26 15 -2 49 0
-26 -15 2 49 0
-26 -15 -2 -49 0
34 37 49 -5 0
34 37 -49 5 0
34 -37 49 5 0
34 -37 -49 -5 0
-34 37 49 5 0
-34 37 -49 -5 0
-34 -37 49 -5 0
-34 -37 -49 5 0
17 55 57 5 -44 0
17 55 57 -5 44 0
17 55 -57 5 44 0
17 55 -57 -5 -44 0
17 -55 57 5 44 0
17 -55 57 -5 -44 0
17 -55 -57 5 -44 0
17 -55 -57 -5 44 0
-17 55 57 5 44 0
-17 55 57 -5 -44 0
-17 55 -57 5 -44 0
-17 55 -57 -5 44 0
-17 -55 57 5 -44 0
-17 -55 57 -5 44 0
-17 -55 -57 5 44 0
-17 -55 -57 -5 -44 0
12 39 40 50 44 -25 0
12 39 40 50 -44 25 0
12 39 40 -50 44 25 0
12 39 40 -50 -44 -25 0
12 39 -40 50 44 25 0
12 39 -40 50 -44 -25 0
12 39 -40 -50 44 -25 0
12 39 -40 -50 -44 25 0
12 -39 40 50 44 25 0
12 -39 40 50 -44 -25 0
12 -39 40 -50 44 -25 0
12 -39 40 -50 -44 25 0
12 -39 -40 50 44 -25 0
12 -39 -40 50 -44 25 0
12 -39 -40 -50 44 25 0
12 -39 -40 -50 -44 -25 0
-12 39 40 50 44 25 0
-12 39 40 50 -44 -25 0
-12 39 40 -50 44 -25 0
-12 39 40 -50 -44 25 0
-12 39 -40 50 44 -25 0
-12 39 -40 50 -44 25 0
-12 39 -40 -50 44 25 0
-12 39 -40 -50 -44 -25 0
-12 -39 40 50 44 -25 0
-12 -39 40 50 -44 25 0
-12 -39 40 -50 44 25 0
-12 -39 40 -50 -44 -25 0
-12 -39 -40 50 44 25 0
-12 -39 -40 50 -44 -25 0
-12 -39 -40 -50 44 -25 0
-12 -39 -40 -50 -44 25 0
67 60 18 63 25 42 0
67 60 18 63 -25 -42 0
67 60 18 -63 25 -42 0
67 60 18 -63 -25 42 0
67 60 -18 63 25 -42 0
67 60 -18 63 -25 42 0
67 60 -18 -63 25 42 0
67 60 -18 -63 -25 -42 0
67 -60 18 63 25 -42 0
67 -60 18 63 -25 42 0
67 -60 18 -63 25 42 0
67 -60 18 -63 -25 -42 0
67 -60 -18 63 25 42 0
67 -60 -18 63 -25 -42 0
67 -60 -18 -63 25 -42 0
67 -60 -18 -63 -25 42 0
-67 60 18 63 25 -42 0
-67 60 18 63 -25 42 0
-67 60 18 -63 25 42 0
-67 60 18 -63 -25 -42 0
-67 60 -18 63 25 42 0
-67 60 -18 63 -25 -42 0
-67 60 -18 -63 25 -42 0
-67 60 -18 -63 -25 42 0
-67 -60 18 63 25 42 0
-67 -60 18 63 -25 -42 0
-67 -60 18 -63 25 -42 0
-67 -60 18 -63 -25 42 0
-67 -60 -18 63 25 -42 0
-67 -60 -18 63 -25 42 0
-67 -60 -18 -63 25 42 0
-67 -60 -18 -63 -25 -42 0
58 23 32 42 -45 0
58 23 32 -42 45 0
58 23 -32 42 45 0
58 23 -32 -42 -45 0
58 -23 32 42 45 0
58 -23 32 -42 -45 0
58 -23 -32 42 -45 0
58 -23 -32 -42 45 0
-58 23 32 42 45 0
-58 23 32 -42 -45 0
-58 23 -32 42 -45 0
-58 23 -32 -42 45 0
-58 -23 32 42 -45 0
-58 -23 32 -42 45 0
-58 -23 -32 42 45 0
-58 -23 -32 -42 -45 0
13 70 45 -29 0
13 70 -45 29 0
13 -70 45 29 0
13 -70 -45 -29 0
-13 70 45 29 0
-13 70 -45 -29 0
-13 -70 45 -29 0
-13 -70 -45 29 0
1 10 29 -62 0
1 10 -29 62 0
1 -10 29 62 0
1 -10 -29 -62 0
-1 10 29 62 0
-1 10 -29 -62 0
-1 -10 29 -62 0
-1 -10 -29 62 0
61 46 4 62 73 0
61 46 4 -62 -73 0
61 46 -4 62 -73 0
61 46 -4 -62 73 0
61 -46 4 62 -73 0
61 -46 4 -62 73 0
61 -46 -4 62 73 0
61 -46 -4 -62 -73 0
-61 46 4 62 -73 0
-61 46 4 -62 73 0
-61 46 -4 62 73 0
-61 46 -4 -62 -73 0
-61 -46 4 62 73 0
-61 -46 4 -62 -73 0
-61 -46 -4 62 -73 0
-61 -46 -4 -62 73 0
36 48 73 9 0
36 48 -73 -9 0
36 -48 73 -9 0
36 -48 -73 9 0
-36 48 73 -9 0
-36 48 -73 9 0
-36 -48 73 9 0
-36 -48 -73 -9 0
24 27 9 -19 0
24 27 -9 19 0
24 -27 9 19 0
24 -27 -9 -19 0
-24 27 9 19 0
-24 27 -9 -19 0
-24 -27 9 -19 0
-24 -27 -9 19 0
38 28 68 19 0
38 28 -68 -19 0
38 -28 68 -19 0
38 -28 -68 19 0
-38 28 68 -19 0
-38 28 -68 19 0
-38 -28 68 19 0
-38 -28 -68 -19 0
13 66 35 46 -59 0
13 66 35 -46 59 0
13 66 -35 46 59 0
13 66 -35 -46 -59 0
13 -66 35 46 59 0
13 -66 35 -46 -59 0
13 -66 -35 46 -59 0
13 -66 -35 -46 59 0
-13 66 35 46 59 0
-13 66 35 -46 -59 0
-13 66 -35 46 -59 0
-13 66 -35 -46 59 0
-13 -66 35 46 -59 0
-13 -66 35 -46 59 0
-13 -66 -35 46 59 0
-13 -66 -35 -46 -59 0
24 20 59 11 0
24 20 -59 -11 0
24 -20 59 -11 0
24 -20 -59 11 0
-24 20 59 -11 0
-24 20 -59 11 0
-24 -20 59 11 0
-24 -20 -59 -11 0
17 50 18 27 28 11 47 0
17 50 18 27 28 -11 -47 0
17 50 18 27 -28 11 -47 0
17 50 18 27 -28 -11 47 0
17 50 18 -27 28 11 -47 0
17 50 18 -27 28 -11 47 0
17 50 18 -27 -28 11 47 0
17 50 18 -27 -28 -11 -47 0
17 50 -18 27 28 11 -47 0
17 50 -18 27 28 -11 47 0
17 50 -18 27 -28 11 47 0
17 50 -18 27 -28 -11 -47 0
17 50 -18 -27 28 11 47 0
17 50 -18 -27 28 -11 -47 0
17 50 -18 -27 -28 11 -47 0
17 50 -18 -27 -28 -11 47 0
17 -50 18 27 28 11 -47 0
17 -50 18 27 28 -11 47 0
17 -50 18 27 -28 11 47 0
17 -50 18 27 -28 -11 -47 0
17 -50 18 -27 28 11 47 0
17 -50 18 -27 28 -11 -47 0
17 -50 18 -27 -28 11 -47 0
17 -50 18 -27 -28 -11 47 0
17 -50 -18 27 28 11 47 0
17 -50 -18 27 28 -11 -47 0
17 -50 -18 27 -28 11 -47 0
17 -50 -18 27 -28 -11 47 0
17 -50 -18 -27 28 11 -47 0
17 -50 -18 -27 28 -11 47 0
17 -50 -18 -27 -28 11 47 0
17 -50 -18 -27 -28 -11 -47 0
-17 50 18 27 28 11 -47 0
-17 50 18 27 28 -11 47 0
-17 50 18 27 -28 11 47 0
-17 50 18 27 -28 -11 -47 0
-17 50 18 -27 28 11 47 0
-17 50 18 -27 28 -11 -47 0
-17 50 18 -27 -28 11 -47 0
-17 50 18 -27 -28 -11 47 0
-17 50 -18 27 28 11 47 0
-17 50 -18 27 28 -11 -47 0
-17 50 -18 27 -28 11 -47 0
-17 50 -18 27 -28 -11 47 0
-17 50 -18 -27 28 11 -47 0
-17 50 -18 -27 28 -11 47 0
-17 50 -18 -27 -28 11 47 0
-17 50 -18 -27 -28 -11 -47 0
-17 -50 18 27 28 11 47 0
-17 -50 18 27 28 -11 -47 0
-17 -50 18 27 -28 11 -47 0
-17 -50 18 27 -28 -11 47 0
-17 -50 18 -27 28 11 -47 0
-17 -50 18 -27 28 -11 47 0
-17 -50 18 -27 -28 11 47 0
-17 -50 18 -27 -28 -11 -47 0
-17 -50 -18 27 28 11 -47 0
-17 -50 -18 27 28 -11 47 0
-17 -50 -18 27 -28 11 47 0
-17 -50 -18 27 -28 -11 -47 0
-17 -50 -18 -27 28 11 47 0
-17 -50 -18 -27 28 -11 -47 0
-17 -50 -18 -27 -28 11 -47 0
-17 -50 -18 -27 -28 -11 47 0
61 57 63 32 47 41 0
61 57 63 32 -47 -41 0
61 57 63 -32 47 -41 0
61 57 63 -32 -47 41 0
61 57 -63 32 47 -41 0
61 57 -63 32 -47 41 0
61 57 -63 -32 47 41 0
61 57 -63 -32 -47 -41 0
61 -57 63 32 47 -41 0
61 -57 63 32 -47 41 0
61 -57 63 -32 47 41 0
61 -57 63 -32 -47 -41 0
61 -57 -63 32 47 41 0
61 -57 -63 32 -47 -41 0
61 -57 -63 -32 47 -41 0
61 -57 -63 -32 -47 41 0
-61 57 63 32 47 -41 0
-61 57 63 32 -47 41 0
-61 57 63 -32 47 41 0
-61 57 63 -32 -47 -41 0
-61 57 -63 32 47 41 0
-61 57 -63 32 -47 -41 0
-61 57 -63 -32 47 -41 0
-61 57 -63 -32 -47 41 0
-61 -57 63 32 47 41 0
-61 -57 63 32 -47 -41 0
-61 -57 63 -32 47 -41 0
-61 -57 63 -32 -47 41 0
-61 -57 -63 32 47 -41 0
-61 -57 -63 32 -47 41 0
-61 -57 -63 -32 47 41 0
-61 -57 -63 -32 -47 -41 0
52 41 14 0
52 -41 -14 0
-52 41 -14 0
-52 -41 14 0
12 56 70 14 -53 0
12 56 70 -14 53 0
12 56 -70 14 53 0
12 56 -70 -14 -53 0
12 -56 70 14 53 0
12 -56 70 -14 -53 0
12 -56 -70 14 -53 0
12 -56 -70 -14 53 0
-12 56 70 14 53 0
-12 56 70 -14 -53 0
-12 56 -70 14 -53 0
-12 56 -70 -14 53 0
-12 -56 70 14 -53 0
-12 -56 70 -14 53 0
-12 -56 -70 14 53 0
-12 -56 -70 -14 -53 0
67 69 40 53 -21 0
67 69 40 -53 21 0
67 69 -40 53 21 0
67 69 -40 -53 -21 0
67 -69 40 53 21 0
67 -69 40 -53 -21 0
67 -69 -40 53 -21 0
67 -69 -40 -53 21 0
-67 69 40 53 21 0
-67 69 40 -53 -21 0
-67 69 -40 53 -21 0
-67 69 -40 -53 21 0
-67 -69 40 53 -21 0
-67 -69 40 -53 21 0
-67 -69 -40 53 21 0
-67 -69 -40 -53 -21 0
30 21 -72 0
30 -21 72 0
-30 21 72 0
-30 -21 -72 0
38 72 8 0
38 -72 -8 0
-38 72 -8 0
-38 -72 8 0
3 8 51 0
3 -8 -51 0
-3 8 -51 0
-3 -8 51 0
58 10 4 68 51 7 0
58 10 4 68 -51 -7 0
58 10 4 -68 51 -7 0
58 10 4 -68 -51 7 0
58 10 -4 68 51 -7 0
58 10 -4 68 -51 7 0
58 10 -4 -68 51 7 0
58 10 -4 -68 -51 -7 0
58 -10 4 68 51 -7 0
58 -10 4 68 -51 7 0
58 -10 4 -68 51 7 0
58 -10 4 -68 -51 -7 0
58 -10 -4 68 51 7 0
58 -10 -4 68 -51 -7 0
58 -10 -4 -68 51 -7 0
58 -10 -4 -68 -51 7 0
-58 10 4 68 51 -7 0
-58 10 4 68 -51 7 0
-58 10 4 -68 51 7 0
-58 10 4 -68 -51 -7 0
-58 10 -4 68 51 7 0
-58 10 -4 68 -51 -7 0
-58 10 -4 -68 51 -7 0
-58 10 -4 -68 -51 7 0
-58 -10 4 68 51 7 0
-58 -10 4 68 -51 -7 0
-58 -10 4 -68 51 -7 0
-58 -10 4 -68 -51 7 0
-58 -10 -4 68 51 -7 0
-58 -10 -4 68 -51 7 0
-58 -10 -4 -68 51 7 0
-58 -10 -4 -68 -51 -7 0
34 23 7 54 0
34 23 -7 -54 0
34 -23 7 -54 0
34 -23 -7 54 0
-34 23 7 -54 0
-34 23 -7 54 0
-34 -23 7 54 0
-34 -23 -7 -54 0
36 43 54 -64 0
36 43 -54 64 0
36 -43 54 64 0
36 -43 -54 -64 0
-36 43 54 64 0
-36 43 -54 -64 0
-36 -43 54 -64 0
-36 -43 -54 64 0
26 33 55 48 64 -31 0
26 33 55 48 -64 31 0
26 33 55 -48 64 31 0
26 33 55 -48 -64 -31 0
26 33 -55 48 64 31 0
26 33 -55 48 -64 -31 0
26 33 -55 -48 64 -31 0
26 33 -55 -48 -64 31 0
26 -33 55 48 64 31 0
26 -33 55 48 -64 -31 0
26 -33 55 -48 64 -31 0
26 -33 55 -48 -64 31 0
26 -33 -55 48 64 -31 0
26 -33 -55 48 -64 31 0
26 -33 -55 -48 64 31 0
26 -33 -55 -48 -64 -31 0
-26 33 55 48 64 31 0
-26 33 55 48 -64 -31 0
-26 33 55 -48 64 -31 0
-26 33 55 -48 -64 31 0
-26 33 -55 48 64 -31 0
-26 33 -55 48 -64 31 0
-26 33 -55 -48 64 31 0
-26 33 -55 -48 -64 -31 0
-26 -33 55 48 64 -31 0
-26 -33 55 48 -64 31 0
-26 -33 55 -48 64 31 0
-26 -33 55 -48 -64 -31 0
-26 -33 -55 48 64 31 0
-26 -33 -55 48 -64 -31 0
-26 -33 -55 -48 64 -31 0
-26 -33 -55 -48 -64 31 0
1 31 -22 0
1 -31 22 0
-1 31 22 0
-1 -31 -22 0
71 15 37 39 60 -22 0
71 15 37 39 -60 22 0
71 15 37 -39 60 22 0
71 15 37 -39 -60 -22 0
71 15 -37 39 60 22 0
71 15 -37 39 -60 -22 0
71 15 -37 -39 60 -22 0
71 15 -37 -39 -60 22 0
71 -15 37 39 60 22 0
71 -15 37 39 -60 -22 0
71 -15 37 -39 60 -22 0
71 -15 37 -39 -60 22 0
71 -15 -37 39 60 -22 0
71 -15 -37 39 -60 22 0
71 -15 -37 -39 60 22 0
71 -15 -37 -39 -60 -22 0
-71 15 37 39 60 22 0
-71 15 37 39 -60 -22 0
-71 15 37 -39 60 -22 0
-71 15 37 -39 -60 22 0
-71 15 -37 39 60 -22 0
-71 15 -37 39 -60 22 0
-71 15 -37 -39 60 22 0
-71 15 -37 -39 -60 -22 0
-71 -15 37 39 60 -22 0
-71 -15 37 39 -60 22 0
-71 -15 37 -39 60 22 0
-71 -15 37 -39 -60 -22 0
-71 -15 -37 39 60 22 0
-71 -15 -37 39 -60 -22 0
-71 -15 -37 -39 60 -22 0
-71 -15 -37 -39 -60 22 0
